14
-1 43 8 30 8 96 37 67 30 78 74 88 96 28
70 -1 5 22 70 50 68 48 70 38 40 32 32 54
5 83 -1 34 22 13 99 2 82 88 36 75 85 27
8 57 46 -1 83 12 96 30 49 11 28 77 87 2
26 93 21 34 -1 94 20 8 62 14 21 47 56 81
9 18 6 39 17 -1 11 42 23 37 51 37 32 96
50 7 58 3 12 37 -1 74 72 78 82 3 71 87
4 87 27 57 34 85 77 -1 2 11 60 44 10 63
13 54 16 27 53 76 43 27 -1 6 2 23 31 21
95 32 78 10 83 78 71 61 43 -1 17 18 38 74
89 91 18 18 5 50 94 76 50 95 -1 93 49 17
72 92 7 91 89 34 13 5 6 50 10 -1 78 52
89 80 47 70 38 3 59 29 40 29 33 63 -1 70
28 39 9 85 69 63 1 37 40 55 50 23 77 -1